
******************************************************************************
This program contains Ipopt, a library for large-scale nonlinear optimization.
 Ipopt is released as open source code under the Eclipse Public License (EPL).
         For more information visit http://projects.coin-or.org/Ipopt
******************************************************************************

This is Ipopt version 3.12.6, running with linear solver ma57.

Number of nonzeros in equality constraint Jacobian...:    13421
Number of nonzeros in inequality constraint Jacobian.:     2982
Number of nonzeros in Lagrangian Hessian.............:      357

Total number of variables............................:     1515
                     variables with only lower bounds:        0
                variables with lower and upper bounds:      595
                     variables with only upper bounds:        0
Total number of equality constraints.................:     1065
Total number of inequality constraints...............:     1286
        inequality constraints with only lower bounds:        0
   inequality constraints with lower and upper bounds:        0
        inequality constraints with only upper bounds:     1286

iter    objective    inf_pr   inf_du lg(mu)  ||d||  lg(rg) alpha_du alpha_pr  ls
   0 -5.1478218e+00 1.67e+03 1.00e+02  -1.0 0.00e+00    -  0.00e+00 0.00e+00   0
Reallocating memory for MA57: lfact (217595)
   1 -2.9015081e+03 1.67e+03 1.00e+02  -1.0 1.72e+03    -  4.46e-04 9.60e-05f  1
   2 -3.2735124e+04 1.67e+03 9.99e+01  -1.0 1.72e+03    -  2.90e-04 9.88e-04f  1
   3 -1.0043351e+05 1.66e+03 9.97e+01  -1.0 1.72e+03    -  1.17e-03 2.25e-03f  1
   4 -2.1686503e+05 1.66e+03 9.93e+01  -1.0 1.71e+03    -  1.19e-03 3.88e-03f  1
   5 -4.1406378e+05 1.65e+03 9.86e+01  -1.0 1.70e+03    -  5.32e-03 6.64e-03f  1
   6 -8.3518182e+05 1.62e+03 9.72e+01  -1.0 1.68e+03    -  6.72e-03 1.44e-02f  1
   7 -1.7022506e+06 1.57e+03 9.43e+01  -1.0 1.64e+03    -  9.65e-03 3.08e-02f  1
   8 -1.9860288e+06 1.56e+03 9.33e+01  -1.0 1.58e+03    -  6.45e-03 1.07e-02f  1
   9 -2.8988594e+06 1.50e+03 9.00e+01  -1.0 1.57e+03    -  6.39e-03 3.54e-02f  1
iter    objective    inf_pr   inf_du lg(mu)  ||d||  lg(rg) alpha_du alpha_pr  ls
  10 -3.0089064e+06 1.49e+03 8.96e+01  -1.0 1.47e+03    -  7.13e-03 4.56e-03f  1
  11 -3.6719370e+06 1.45e+03 8.71e+01  -1.0 1.50e+03    -  9.00e-03 2.78e-02f  1
  12 -3.8697404e+06 1.44e+03 8.64e+01  -1.0 1.41e+03    -  2.51e-03 8.79e-03f  1
  13 -3.9149574e+06 1.44e+03 8.62e+01  -1.0 1.44e+03    -  1.29e-02 2.02e-03f  1
  14 -4.2641508e+06 1.41e+03 8.48e+01  -1.0 1.40e+03    -  1.02e-03 1.59e-02f  1
  15 -4.2876251e+06 1.41e+03 8.47e+01  -1.0 1.41e+03    -  1.68e-02 1.09e-03f  1
  16 -4.8565750e+06 1.37e+03 8.25e+01  -1.0 1.38e+03    -  1.41e-03 2.69e-02f  1
  17 -4.8791837e+06 1.37e+03 8.23e+01  -1.0 1.37e+03    -  2.31e-02 1.11e-03f  1
  18 -5.6172952e+06 1.32e+03 7.93e+01  -1.0 1.36e+03    -  2.35e-03 3.72e-02f  1
  19 -5.8432003e+06 1.31e+03 7.83e+01  -1.0 1.31e+03    -  1.83e-02 1.21e-02f  1
iter    objective    inf_pr   inf_du lg(mu)  ||d||  lg(rg) alpha_du alpha_pr  ls
  20 -6.7018925e+06 1.24e+03 7.46e+01  -1.0 1.30e+03    -  1.76e-02 4.78e-02f  1
  21 -7.3767820e+06 1.19e+03 7.15e+01  -1.0 1.23e+03    -  2.46e-02 4.15e-02f  1
  22 -7.8288729e+06 1.16e+03 6.94e+01  -1.0 1.16e+03    -  1.26e-02 3.02e-02f  1
  23 -8.0532574e+06 1.14e+03 6.83e+01  -1.0 1.11e+03    -  2.46e-02 1.59e-02f  1
  24 -8.1081719e+06 1.13e+03 6.80e+01  -1.0 1.16e+03    -  6.27e-03 3.97e-03f  1
  25 -8.8627382e+06 1.07e+03 6.42e+01  -1.0 1.16e+03    -  8.88e-03 5.66e-02f  1
  26 -8.9129307e+06 1.06e+03 6.39e+01  -1.0 1.03e+03    -  5.75e-02 4.15e-03f  1
  27 -9.2175380e+06 1.04e+03 6.23e+01  -1.0 1.09e+03    -  4.79e-02 2.53e-02f  1
  28 -9.9263246e+06 9.72e+02 5.84e+01  -1.0 1.07e+03    -  2.55e-02 6.29e-02f  1
  29 -1.0486299e+07 9.17e+02 5.51e+01  -1.0 9.98e+02    -  1.21e-02 5.65e-02f  1
iter    objective    inf_pr   inf_du lg(mu)  ||d||  lg(rg) alpha_du alpha_pr  ls
  30 -1.1216789e+07 8.40e+02 5.05e+01  -1.0 9.38e+02    -  2.81e-02 8.41e-02f  1
  31 -1.1527943e+07 8.05e+02 4.83e+01  -1.0 8.47e+02    -  9.53e-03 4.21e-02f  1
  32 -1.1680575e+07 7.87e+02 4.73e+01  -1.0 8.08e+02    -  5.63e-02 2.23e-02f  1
  33 -1.2054063e+07 7.41e+02 4.45e+01  -1.0 7.98e+02    -  2.53e-02 5.79e-02f  1
  34 -1.2376213e+07 7.00e+02 4.20e+01  -1.0 7.41e+02    -  9.70e-02 5.61e-02f  1
  35 -1.2746911e+07 6.49e+02 3.90e+01  -1.0 7.06e+02    -  4.52e-02 7.28e-02f  1
  36 -1.3054004e+07 6.03e+02 3.62e+01  -1.0 6.54e+02    -  8.53e-02 6.98e-02f  1
  37 -1.3311659e+07 5.63e+02 3.38e+01  -1.0 6.18e+02    -  1.25e-01 6.74e-02f  1
  38 -1.3803109e+07 4.76e+02 2.86e+01  -1.0 5.85e+02    -  1.21e-01 1.55e-01f  1
  39 -1.4272275e+07 3.74e+02 2.25e+01  -1.0 4.99e+02    -  1.04e-01 2.13e-01f  1
iter    objective    inf_pr   inf_du lg(mu)  ||d||  lg(rg) alpha_du alpha_pr  ls
  40 -1.4650807e+07 2.65e+02 1.59e+01  -1.0 3.93e+02    -  9.46e-02 2.91e-01f  1
  41 -1.4773349e+07 2.19e+02 1.31e+01  -1.0 2.93e+02    -  1.56e-01 1.75e-01f  1
  42 -1.4878215e+07 1.69e+02 1.01e+01  -1.0 2.75e+02    -  1.56e-01 2.28e-01f  1
  43 -1.5008480e+07 6.51e+01 5.67e+00  -1.0 2.38e+02    -  1.89e-01 6.15e-01f  1
  44 -1.5024379e+07 3.36e+01 9.06e+00  -1.0 1.11e+02    -  2.94e-01 4.83e-01f  1
  45 -1.5029081e+07 9.41e+00 1.81e+01  -1.0 6.30e+01    -  2.63e-01 7.20e-01f  1
  46 -1.5029442e+07 3.06e+00 2.33e+01  -1.0 2.60e+01    -  2.06e-01 6.74e-01f  1
  47 -1.5029535e+07 2.15e+00 1.58e+01  -1.0 1.71e+01    -  3.13e-01 2.96e-01f  1
  48 -1.5029646e+07 6.97e-01 2.34e+01  -1.0 1.55e+01    -  3.60e-01 6.77e-01f  1
  49 -1.5029686e+07 4.32e-01 4.13e+01  -1.0 1.64e+01    -  2.31e-01 3.80e-01f  1
iter    objective    inf_pr   inf_du lg(mu)  ||d||  lg(rg) alpha_du alpha_pr  ls
  50 -1.5029707e+07 2.59e-01 2.91e+01  -1.0 1.05e+01    -  5.86e-01 4.01e-01f  1
  51 -1.5029721e+07 1.29e-01 1.61e+02  -1.0 1.49e+01    -  8.10e-01 5.02e-01f  1
  52 -1.5029724e+07 9.06e-02 6.13e+02  -1.0 8.39e+00    -  8.21e-01 2.97e-01f  2
  53 -1.5029722e+07 1.76e-02 3.50e+02  -1.0 7.84e+00    -  4.59e-01 8.06e-01h  1
  54 -1.5029721e+07 1.12e-02 4.13e+03  -1.0 4.25e+00    -  9.90e-01 3.62e-01h  1
  55 -1.5029720e+07 4.03e-03 5.24e+03  -1.0 3.07e+00    -  9.90e-01 6.40e-01h  1
  56 -1.5029719e+07 1.73e-03 1.44e+04  -1.0 1.18e+00    -  9.95e-01 5.71e-01h  1
  57 -1.5029719e+07 5.93e-04 2.52e+04  -1.0 5.05e-01    -  1.00e+00 6.58e-01h  1
  58 -1.5029719e+07 2.01e-04 5.23e+04  -1.0 1.73e-01    -  1.00e+00 6.60e-01h  1
  59 -1.5029719e+07 1.78e-04 2.12e+05  -1.0 5.88e-02    -  1.00e+00 1.14e-01h  4
iter    objective    inf_pr   inf_du lg(mu)  ||d||  lg(rg) alpha_du alpha_pr  ls
  60 -1.5029719e+07 2.13e-12 1.00e-06  -1.0 5.20e-02    -  1.00e+00 1.00e+00h  1
  61 -1.5030015e+07 1.06e-09 1.50e+04  -3.8 6.78e+00    -  7.03e-01 7.32e-01f  1
  62 -1.5030077e+07 4.26e-10 8.45e+02  -3.8 1.05e+01    -  6.30e-01 5.97e-01f  1
  63 -1.5030099e+07 2.16e-10 1.04e+04  -3.8 1.09e+01    -  6.82e-01 4.93e-01f  1
Reallocating memory for MA57: lfact (229179)
  64 -1.5030112e+07 8.59e-11 6.35e+03  -3.8 6.76e+00    -  7.25e-01 6.03e-01f  1
  65 -1.5030119e+07 1.84e-11 1.01e+03  -3.8 2.38e+00    -  7.19e-01 7.87e-01f  1
  66 -1.5030120e+07 1.01e-12 1.50e-09  -3.8 7.66e-01    -  1.00e+00 1.00e+00f  1
  67 -1.5030121e+07 1.15e-12 2.50e+01  -5.7 3.62e-01    -  9.64e-01 9.37e-01f  1
Reallocating memory for MA57: lfact (253230)
  68 -1.5030121e+07 7.57e-13 4.09e+00  -5.7 1.82e-01    -  8.70e-01 1.00e+00f  1
  69 -1.5030121e+07 1.18e-12 1.93e+00  -5.7 7.13e-02    -  4.26e-01 5.09e-01f  1
iter    objective    inf_pr   inf_du lg(mu)  ||d||  lg(rg) alpha_du alpha_pr  ls
  70 -1.5030121e+07 1.05e-12 1.84e-11  -5.7 5.04e-02    -  1.00e+00 1.00e+00f  1
  71 -1.5030121e+07 1.14e-12 1.32e+00  -8.6 2.85e-02    -  2.92e-01 5.91e-01f  1
  72 -1.5030121e+07 2.25e-12 2.64e-01  -8.6 1.56e-02    -  4.82e-01 9.72e-01f  1
  73 -1.5030121e+07 1.16e-12 2.62e+00  -8.6 3.57e-03    -  1.00e+00 4.55e-01f  1
Reallocating memory for MA57: lfact (278159)
Reallocating memory for MA57: lfact (314706)
  74 -1.5030121e+07 2.82e-10 3.39e+00  -8.6 2.49e-03    -  8.00e-01 5.01e-01f  1
  75 -1.5030121e+07 7.17e-11 2.66e-01  -8.6 1.58e-03    -  9.03e-01 1.00e+00f  1
  76 -1.5030121e+07 2.78e-11 1.82e-12  -8.6 4.61e-04    -  1.00e+00 1.00e+00h  1
Reallocating memory for MA57: lfact (336633)
  77 -1.5030121e+07 9.09e-13 1.82e-12  -9.0 2.53e-04    -  1.00e+00 1.00e+00h  1

Number of Iterations....: 77

                                   (scaled)                 (unscaled)
Objective...............:  -2.0875168195138515e+06   -1.5030121100499731e+07
Dual infeasibility......:   1.8189894035458565e-12    1.3096723705530165e-11
Constraint violation....:   7.9499856133966040e-13    9.0949470177292824e-13
Complementarity.........:   5.3067427451890579e-09    3.8208547765361216e-08
Overall NLP error.......:   5.3067427451890579e-09    3.8208547765361216e-08


Number of objective function evaluations             = 82
Number of objective gradient evaluations             = 78
Number of equality constraint evaluations            = 82
Number of inequality constraint evaluations          = 82
Number of equality constraint Jacobian evaluations   = 78
Number of inequality constraint Jacobian evaluations = 78
Number of Lagrangian Hessian evaluations             = 77
Total CPU secs in IPOPT (w/o function evaluations)   =      0.860
Total CPU secs in NLP function evaluations           =      0.043

EXIT: Optimal Solution Found.
Note: The following floating-point exceptions are signalling: IEEE_OVERFLOW_FLAG IEEE_UNDERFLOW_FLAG IEEE_DENORMAL

************************ CUTEst statistics ************************


 Package used            :  IPOPT
 Problem                 :  MPC11     
 # variables             =            1530
 # constraints           =            2351
 # objective functions   =        0.1610000E+03
 # objective gradients   =        0.7900000E+02
 # objective Hessians    =        0.7800000E+02
 # Hessian-vector prdct  =        0.0000000E+00
 # constraints functions =        0.1620000E+03
 # constraints gradients =        0.8000000E+02
 # constraints Hessians  =        0.7800000E+02
 Exit code               =               0
 Final f                 =  -0.1503012E+08
 Set up time             =            0.05 seconds
 Solve time              =            1.10 seconds


******************************************************************

System Time =       0.8880000114 s.
